* ENCODING=ISO-8859-1
NAME          CPLEX
ROWS
 N  obj1    
 G  c1      
 G  c2      
 G  c3      
 G  c4      
 G  c5      
 G  c6      
 G  c7      
 G  c8      
 G  c9      
 G  c10     
 G  c11     
 G  c12     
 G  c13     
 G  c14     
 G  c15     
 G  c16     
 G  c17     
 G  c18     
 G  c19     
 G  c20     
 G  c21     
 G  c22     
 G  c23     
 G  c24     
 G  c25     
 G  c26     
 G  c27     
 G  c28     
 G  c29     
 G  c30     
 G  c31     
 G  c32     
 G  c33     
 G  c34     
 G  c35     
COLUMNS
    MARK0000  'MARKER'                 'INTORG'
    x1        obj1                            1
    x1        c1                            321
    x2        obj1                            1
    x2        c6                            599
    x2        c24                           933
    x2        c26                           311
    x3        obj1                            1
    x3        c4                            898
    x3        c16                           806
    x3        c18                           493
    x3        c24                           313
    x3        c27                           215
    x4        obj1                            1
    x4        c5                            665
    x4        c7                            140
    x4        c14                           141
    x4        c17                           196
    x4        c26                           997
    x4        c29                           245
    x4        c32                           547
    x5        obj1                            1
    x5        c8                            482
    x5        c14                           861
    x5        c27                           600
    x5        c28                           657
    x6        obj1                            1
    x6        c20                           913
    x6        c22                           726
    x7        obj1                            1
    x7        c9                            537
    x7        c11                           331
    x7        c18                           848
    x7        c29                           940
    x8        obj1                            1
    x8        c1                            257
    x8        c4                            287
    x8        c22                           718
    x8        c29                           966
    x9        obj1                            1
    x9        c10                           471
    x9        c28                           427
    x10       obj1                            1
    x10       c1                            363
    x10       c4                            737
    x10       c13                           409
    x10       c19                           399
    x10       c24                           717
    x10       c30                           587
    x11       obj1                            1
    x11       c2                            346
    x11       c9                            241
    x11       c35                           845
    x12       obj1                            1
    x12       c9                            167
    x12       c11                           477
    x12       c16                           705
    x12       c28                           965
    x12       c31                           465
    x12       c33                           285
    x13       obj1                            1
    x13       c4                            575
    x13       c5                            842
    x13       c11                           890
    x13       c15                           796
    x13       c27                           142
    x14       obj1                            1
    x14       c10                           931
    x14       c22                           119
    x14       c33                           135
    x14       c35                           284
    x15       obj1                            1
    x15       c8                            129
    x15       c9                            803
    x15       c13                           737
    x16       obj1                            1
    x16       c13                           349
    x16       c35                           224
    x17       obj1                            1
    x17       c1                            277
    x17       c7                            641
    x17       c11                           277
    x17       c22                           240
    x18       obj1                            1
    x18       c8                            760
    x18       c20                           338
    x18       c25                           828
    x19       obj1                            1
    x19       c2                            747
    x19       c10                           476
    x19       c17                           365
    x19       c19                           444
    x20       obj1                            1
    x20       c5                            794
    x20       c11                           740
    x20       c24                           177
    x20       c29                           447
    x20       c31                           289
    x20       c34                           349
    x21       obj1                            1
    x21       c1                            522
    x21       c18                           765
    x22       obj1                            1
    x22       c7                            249
    x22       c23                           865
    x22       c25                           674
    x22       c31                           169
    x23       obj1                            1
    x23       c10                           726
    x23       c26                           764
    x23       c35                           698
    x24       obj1                            1
    x24       c2                            375
    x25       obj1                            1
    x25       c7                            328
    x25       c21                           702
    x25       c26                           673
    x25       c35                           487
    x26       obj1                            1
    x27       obj1                            1
    x27       c11                           856
    x27       c12                           637
    x27       c30                           695
    x27       c32                           919
    x28       obj1                            1
    x28       c15                           356
    x28       c24                           298
    x28       c31                           175
    x29       obj1                            1
    x29       c3                            524
    x29       c9                            984
    x30       obj1                            1
    x30       c1                            449
    x30       c15                           559
    x30       c26                           174
    x30       c29                           895
    x30       c31                           726
    x31       obj1                            1
    x31       c3                            823
    x31       c16                           793
    x31       c21                           315
    x31       c23                           709
    x32       obj1                            1
    x32       c2                            310
    x32       c8                            806
    x32       c21                           995
    x32       c25                           379
    x33       obj1                            1
    x33       c6                            966
    x33       c7                            930
    x33       c29                           764
    x34       obj1                            1
    x34       c12                           376
    x34       c35                           953
    x35       obj1                            1
    x35       c11                           786
    x35       c14                           374
    x36       obj1                            1
    x36       c6                            821
    x36       c19                           637
    x36       c20                           167
    x36       c26                           959
    x36       c27                           512
    x36       c30                           113
    x36       c33                           392
    x37       obj1                            1
    x37       c5                            788
    x37       c25                           894
    x38       obj1                            1
    x38       c9                            950
    x38       c20                           868
    x39       obj1                            1
    x39       c3                            652
    x39       c8                            647
    x39       c15                           897
    x39       c20                           567
    x40       obj1                            1
    x40       c10                           452
    x40       c34                           117
    x41       obj1                            1
    x41       c9                            754
    x41       c12                           265
    x41       c30                           898
    x42       obj1                            1
    x42       c10                           601
    x42       c26                           183
    x43       obj1                            1
    x43       c10                           599
    x43       c12                           339
    x43       c13                           819
    x43       c22                           590
    x43       c26                           703
    x44       obj1                            1
    x44       c8                            900
    x44       c13                           632
    x45       obj1                            1
    x45       c17                           495
    x45       c32                           821
    x46       obj1                            1
    x46       c4                            784
    x46       c8                            893
    x47       obj1                            1
    x47       c6                            960
    x47       c19                           910
    x47       c33                           839
    x48       obj1                            1
    x48       c4                            206
    x48       c28                           297
    x49       obj1                            1
    x49       c1                            223
    x49       c10                           235
    x49       c12                           619
    x49       c34                           782
    x50       obj1                            1
    x51       obj1                            1
    x51       c20                           612
    x51       c24                           243
    x52       obj1                            1
    x52       c9                            525
    x52       c10                           295
    x52       c18                           623
    x53       obj1                            1
    x53       c3                            122
    x53       c8                            397
    x53       c15                           371
    x53       c17                           887
    x53       c21                           112
    x53       c30                           398
    x54       obj1                            1
    x54       c31                           577
    x54       c34                           848
    x55       obj1                            1
    x56       obj1                            1
    x56       c20                           679
    x56       c32                           688
    x57       obj1                            1
    x57       c7                            232
    x57       c22                           529
    x57       c24                           521
    x57       c27                           829
    x57       c34                           892
    x58       obj1                            1
    x58       c33                           881
    x59       obj1                            1
    x59       c16                           198
    x59       c23                           436
    x59       c34                           268
    x60       obj1                            1
    x60       c13                           588
    x60       c14                           209
    x60       c27                           721
    x61       obj1                            1
    x61       c13                           526
    x61       c16                           853
    x61       c20                           588
    x61       c22                           177
    x61       c28                           133
    x62       obj1                            1
    x62       c4                            157
    x62       c33                           650
    x63       obj1                            1
    x63       c1                            972
    x63       c23                           227
    x63       c25                           259
    x63       c34                           378
    x64       obj1                            1
    x64       c8                            303
    x64       c10                           669
    x64       c13                           410
    x65       obj1                            1
    x65       c16                           126
    x65       c20                           288
    x65       c32                           790
    x66       obj1                            1
    x66       c3                            636
    x66       c5                            177
    x66       c9                            755
    x66       c14                           609
    x66       c27                           863
    x66       c30                           108
    x67       obj1                            1
    x67       c4                            820
    x67       c21                           245
    x67       c27                           100
    x68       obj1                            1
    x68       c11                           179
    x68       c18                           226
    x68       c23                           956
    x68       c26                           795
    x68       c29                           528
    x68       c35                           520
    x69       obj1                            1
    x69       c2                            372
    x69       c9                            124
    x69       c13                           704
    x69       c29                           446
    x69       c35                           565
    x70       obj1                            1
    MARK0001  'MARKER'                 'INTEND'
RHS
    rhs       c1                           1692
    rhs       c2                           1075
    rhs       c3                           1379
    rhs       c4                           2232
    rhs       c5                           1633
    rhs       c6                           1673
    rhs       c7                           1260
    rhs       c8                           2659
    rhs       c9                           2920
    rhs       c10                          2728
    rhs       c11                          2268
    rhs       c12                          1118
    rhs       c13                          2587
    rhs       c14                          1097
    rhs       c15                          1490
    rhs       c16                          1741
    rhs       c17                           972
    rhs       c18                          1478
    rhs       c19                          1195
    rhs       c20                          2510
    rhs       c21                          1185
    rhs       c22                          1550
    rhs       c23                          1597
    rhs       c24                          1601
    rhs       c25                          1517
    rhs       c26                          2780
    rhs       c27                          1991
    rhs       c28                          1240
    rhs       c29                          2616
    rhs       c30                          1400
    rhs       c31                          1201
    rhs       c32                          1883
    rhs       c33                          1591
    rhs       c34                          1817
    rhs       c35                          2288
BOUNDS
 LI bnd       x1        0
 LI bnd       x2        0
 LI bnd       x3        0
 LI bnd       x4        0
 LI bnd       x5        0
 LI bnd       x6        0
 LI bnd       x7        0
 LI bnd       x8        0
 LI bnd       x9        0
 LI bnd       x10       0
 LI bnd       x11       0
 LI bnd       x12       0
 LI bnd       x13       0
 LI bnd       x14       0
 LI bnd       x15       0
 LI bnd       x16       0
 LI bnd       x17       0
 LI bnd       x18       0
 LI bnd       x19       0
 LI bnd       x20       0
 LI bnd       x21       0
 LI bnd       x22       0
 LI bnd       x23       0
 LI bnd       x24       0
 LI bnd       x25       0
 LI bnd       x26       0
 LI bnd       x27       0
 LI bnd       x28       0
 LI bnd       x29       0
 LI bnd       x30       0
 LI bnd       x31       0
 LI bnd       x32       0
 LI bnd       x33       0
 LI bnd       x34       0
 LI bnd       x35       0
 LI bnd       x36       0
 LI bnd       x37       0
 LI bnd       x38       0
 LI bnd       x39       0
 LI bnd       x40       0
 LI bnd       x41       0
 LI bnd       x42       0
 LI bnd       x43       0
 LI bnd       x44       0
 LI bnd       x45       0
 LI bnd       x46       0
 LI bnd       x47       0
 LI bnd       x48       0
 LI bnd       x49       0
 LI bnd       x50       0
 LI bnd       x51       0
 LI bnd       x52       0
 LI bnd       x53       0
 LI bnd       x54       0
 LI bnd       x55       0
 LI bnd       x56       0
 LI bnd       x57       0
 LI bnd       x58       0
 LI bnd       x59       0
 LI bnd       x60       0
 LI bnd       x61       0
 LI bnd       x62       0
 LI bnd       x63       0
 LI bnd       x64       0
 LI bnd       x65       0
 LI bnd       x66       0
 LI bnd       x67       0
 LI bnd       x68       0
 LI bnd       x69       0
 LI bnd       x70       0
ENDATA
